
n_res = 8;
rcap = [198, 207, 193, 198, 791, 738, 735, 741];
rtype = [1, 1, 1, 1, 2, 2, 2, 2];
n_tasks = 50;
modes =  [{1, 2, 3}, {4, 5, 6}, {7, 8, 9}, {10, 11, 12}, {13, 14, 15}, {16, 17, 18}, {19, 20, 21}, {22, 23, 24}, {25, 26, 27}, {28, 29, 30}, {31, 32, 33}, {34, 35, 36}, {37, 38, 39}, {40, 41, 42}, {43, 44, 45}, {46, 47, 48}, {49, 50, 51}, {52, 53, 54}, {55, 56, 57}, {58, 59, 60}, {61, 62, 63}, {64, 65, 66}, {67, 68, 69}, {70, 71, 72}, {73, 74, 75}, {76, 77, 78}, {79, 80, 81}, {82, 83, 84}, {85, 86, 87}, {88, 89, 90}, {91, 92, 93}, {94, 95, 96}, {97, 98, 99}, {100, 101, 102}, {103, 104, 105}, {106, 107, 108}, {109, 110, 111}, {112, 113, 114}, {115, 116, 117}, {118, 119, 120}, {121, 122, 123}, {124, 125, 126}, {127, 128, 129}, {130, 131, 132}, {133, 134, 135}, {136, 137, 138}, {139, 140, 141}, {142, 143, 144}, {145, 146, 147}, {148, 149, 150}];
succ =  [{50, 49, 48, 46, 44, 42, 40, 39, 32, 14, 13}, {47, 46, 39, 32, 27, 21, 17, 12}, {49, 46, 44, 42, 39, 30, 27, 26, 12}, {46, 45, 31, 29, 21, 17, 15}, {45, 43, 35, 22, 21, 17, 15}, {50, 49, 46, 43, 41, 39, 29, 28, 20, 19}, {47, 46, 43, 39, 29, 28, 27, 21, 17}, {48, 47, 46, 44, 40, 39, 38, 35, 31, 28, 21, 20}, {49, 48, 47, 45, 44, 43, 42, 41, 40, 39, 38, 37, 36, 35, 34, 33}, {48, 47, 44, 43, 39, 30, 29, 28, 21}, {49, 46, 45, 44, 39, 38, 37, 28, 26}, {48, 45, 43, 41, 38, 34, 29, 20}, {45, 43, 41, 31, 29, 28, 20}, {47, 45, 43, 41, 38, 37, 36, 35, 28}, {47, 39, 38, 37, 36, 30, 28}, {46, 41, 39, 38, 35, 34, 30}, {44, 42, 40, 37, 36, 34}, {45, 43, 35, 34, 28}, {44, 42, 38, 26}, {37, 36, 33}, {42, 41, 36}, {42, 36, 33}, {46, 40, 39}, {43, 39, 37}, {36, 28}, {35, 34}, {40, 38}, {33}, {35}, {40}, {34}, {34}, {}, {}, {}, {}, {}, {}, {}, {}, {}, {}, {}, {}, {}, {}, {}, {}, {}, {}];
n_opt = 150;
dur = [1, 11, 29, 8, 26, 30, 11, 16, 20, 4, 10, 20, 4, 5, 21, 15, 25, 30, 4, 11, 27, 4, 9, 26, 1, 3, 11, 3, 19, 29, 18, 21, 29, 4, 8, 19, 8, 20, 26, 10, 25, 30, 7, 22, 29, 2, 16, 20, 3, 14, 27, 1, 11, 16, 4, 10, 18, 4, 8, 12, 20, 27, 28, 3, 5, 16, 25, 28, 29, 4, 6, 12, 16, 20, 28, 3, 4, 24, 10, 12, 26, 14, 19, 26, 12, 22, 27, 1, 4, 5, 4, 10, 18, 2, 25, 28, 11, 15, 18, 1, 14, 19, 10, 11, 26, 3, 18, 22, 10, 23, 27, 8, 16, 29, 6, 22, 23, 2, 10, 14, 4, 8, 14, 19, 20, 21, 6, 10, 26, 1, 8, 22, 4, 11, 30, 7, 11, 18, 3, 6, 26, 7, 16, 19, 6, 21, 25, 3, 24, 30];
rreq = [|3, 1, 1, 4, 4, 4, 1, 1, 1, 5, 3, 2, 4, 3, 2, 1, 1, 1, 4, 3, 3, 3, 3, 2, 4, 2, 2, 1, 1, 1, 3, 2, 2, 1, 1, 1, 1, 1, 1, 4, 2, 2, 4, 3, 3, 3, 2, 1, 3, 2, 2, 2, 2, 2, 5, 4, 2, 4, 2, 2, 4, 3, 2, 3, 3, 3, 4, 3, 3, 4, 3, 3, 5, 5, 5, 5, 4, 3, 3, 2, 1, 3, 2, 1, 5, 4, 4, 4, 3, 3, 3, 2, 2, 4, 3, 3, 1, 1, 1, 5, 4, 4, 3, 2, 1, 4, 4, 4, 2, 2, 2, 5, 4, 2, 3, 3, 1, 2, 2, 2, 1, 1, 1, 5, 5, 5, 2, 1, 1, 2, 2, 1, 4, 4, 4, 3, 3, 3, 5, 4, 4, 4, 4, 3, 5, 4, 3, 5, 5, 5
 |5, 4, 2, 1, 1, 1, 1, 1, 1, 1, 1, 1, 1, 1, 1, 4, 2, 2, 5, 3, 3, 3, 3, 1, 2, 1, 1, 2, 1, 1, 2, 2, 2, 2, 1, 1, 2, 2, 2, 3, 3, 3, 1, 1, 1, 2, 2, 2, 1, 1, 1, 3, 2, 1, 4, 4, 4, 4, 4, 3, 4, 3, 3, 5, 3, 2, 4, 2, 2, 3, 1, 1, 4, 4, 4, 3, 2, 2, 4, 3, 1, 5, 4, 4, 4, 4, 2, 5, 5, 5, 5, 4, 2, 3, 2, 2, 2, 2, 2, 4, 2, 2, 4, 4, 4, 3, 2, 1, 5, 4, 3, 3, 2, 2, 5, 5, 5, 4, 4, 3, 5, 5, 5, 5, 4, 4, 4, 3, 2, 4, 3, 3, 4, 4, 4, 5, 2, 2, 4, 3, 2, 3, 2, 1, 4, 3, 3, 4, 4, 4
 |2, 1, 1, 5, 4, 4, 4, 3, 2, 4, 2, 2, 2, 2, 1, 5, 5, 5, 3, 2, 1, 4, 3, 2, 1, 1, 1, 4, 3, 1, 4, 4, 4, 3, 2, 2, 4, 3, 2, 5, 3, 3, 5, 3, 3, 4, 3, 3, 3, 3, 3, 3, 2, 2, 1, 1, 1, 4, 3, 2, 3, 3, 3, 1, 1, 1, 3, 2, 2, 2, 2, 2, 5, 4, 3, 4, 4, 4, 3, 1, 1, 2, 1, 1, 5, 5, 5, 5, 4, 3, 2, 2, 2, 2, 1, 1, 4, 4, 4, 5, 3, 3, 5, 4, 4, 3, 3, 2, 4, 3, 3, 4, 4, 4, 3, 2, 2, 2, 1, 1, 5, 4, 4, 3, 2, 1, 4, 4, 4, 1, 1, 1, 5, 3, 2, 4, 3, 1, 4, 3, 2, 4, 3, 2, 5, 4, 4, 5, 5, 5
 |3, 2, 2, 5, 4, 4, 3, 3, 2, 2, 1, 1, 4, 4, 3, 5, 3, 3, 2, 1, 1, 4, 3, 3, 5, 5, 5, 4, 3, 2, 2, 1, 1, 1, 1, 1, 4, 2, 1, 4, 4, 3, 3, 3, 2, 5, 2, 1, 4, 3, 3, 5, 3, 1, 3, 3, 3, 3, 3, 1, 2, 1, 1, 3, 3, 3, 1, 1, 1, 2, 2, 2, 4, 4, 3, 4, 3, 2, 2, 2, 2, 5, 4, 3, 3, 3, 2, 3, 3, 2, 4, 3, 1, 4, 3, 2, 5, 5, 5, 2, 1, 1, 1, 1, 1, 4, 2, 2, 5, 3, 3, 1, 1, 1, 5, 3, 2, 4, 4, 4, 4, 2, 2, 3, 2, 1, 5, 4, 3, 3, 3, 3, 3, 3, 3, 4, 4, 4, 5, 3, 3, 5, 5, 5, 4, 4, 4, 3, 3, 2
 |22, 15, 9, 3, 3, 3, 25, 21, 14, 23, 23, 23, 14, 9, 8, 20, 16, 13, 17, 14, 9, 17, 12, 7, 10, 4, 1, 20, 18, 12, 19, 17, 14, 18, 8, 3, 15, 12, 11, 22, 14, 13, 12, 10, 7, 18, 17, 16, 24, 11, 3, 30, 29, 29, 27, 19, 9, 29, 23, 16, 20, 19, 19, 29, 26, 24, 29, 25, 21, 22, 20, 18, 26, 24, 24, 12, 11, 6, 16, 15, 15, 22, 22, 17, 29, 25, 24, 21, 15, 13, 19, 18, 17, 16, 15, 12, 16, 11, 6, 19, 19, 18, 4, 4, 4, 8, 5, 4, 9, 9, 8, 23, 17, 13, 8, 7, 6, 6, 5, 5, 28, 27, 25, 12, 6, 2, 18, 11, 7, 28, 19, 17, 18, 18, 16, 27, 20, 15, 22, 22, 22, 7, 7, 3, 21, 18, 15, 25, 23, 22
 |3, 2, 2, 15, 13, 6, 25, 23, 20, 28, 20, 20, 30, 23, 17, 24, 24, 23, 18, 13, 12, 16, 14, 14, 18, 16, 14, 8, 7, 6, 16, 16, 16, 5, 3, 1, 24, 12, 9, 12, 11, 9, 17, 13, 8, 19, 14, 10, 13, 10, 9, 21, 21, 15, 10, 10, 10, 18, 13, 12, 10, 10, 8, 13, 12, 10, 25, 24, 19, 23, 13, 9, 15, 14, 13, 20, 16, 16, 25, 23, 17, 10, 8, 8, 11, 10, 5, 15, 11, 4, 24, 19, 19, 12, 7, 3, 20, 20, 18, 2, 2, 2, 10, 9, 8, 19, 19, 19, 11, 11, 9, 22, 20, 19, 21, 16, 5, 20, 18, 16, 14, 14, 14, 17, 15, 14, 27, 27, 24, 7, 6, 6, 19, 18, 15, 15, 15, 13, 25, 20, 19, 20, 15, 12, 25, 24, 24, 21, 19, 17
 |14, 14, 7, 25, 24, 22, 15, 13, 13, 26, 15, 2, 21, 15, 11, 22, 14, 9, 30, 21, 6, 21, 17, 14, 24, 20, 18, 20, 20, 19, 19, 14, 12, 27, 18, 8, 27, 18, 9, 22, 22, 22, 13, 11, 10, 27, 23, 23, 25, 15, 5, 28, 23, 18, 27, 21, 16, 20, 19, 3, 21, 20, 17, 24, 19, 13, 25, 21, 18, 21, 19, 18, 17, 16, 16, 5, 3, 3, 4, 4, 3, 20, 7, 6, 23, 21, 21, 11, 7, 4, 6, 4, 3, 15, 10, 5, 17, 17, 11, 17, 11, 2, 12, 11, 10, 20, 17, 7, 12, 10, 6, 25, 15, 3, 13, 13, 12, 11, 10, 9, 11, 8, 6, 16, 10, 1, 23, 12, 9, 27, 18, 8, 23, 21, 18, 11, 7, 3, 21, 21, 20, 8, 5, 1, 22, 20, 19, 9, 8, 8
 |24, 15, 12, 23, 14, 10, 7, 6, 5, 21, 15, 8, 27, 26, 24, 22, 15, 11, 19, 12, 7, 23, 21, 13, 14, 13, 13, 21, 20, 19, 18, 14, 11, 17, 12, 10, 7, 6, 3, 24, 22, 20, 25, 22, 18, 18, 17, 15, 3, 2, 2, 25, 13, 10, 3, 3, 2, 20, 13, 7, 21, 17, 11, 22, 19, 19, 19, 17, 9, 24, 24, 22, 21, 19, 9, 22, 19, 18, 26, 24, 24, 23, 18, 18, 27, 27, 27, 23, 22, 20, 20, 18, 16, 8, 8, 7, 17, 12, 6, 22, 20, 19, 15, 12, 12, 28, 21, 14, 20, 16, 12, 12, 8, 4, 17, 10, 4, 17, 14, 12, 17, 11, 11, 14, 11, 2, 26, 26, 25, 18, 12, 9, 17, 12, 3, 12, 9, 3, 11, 8, 6, 10, 8, 6, 7, 5, 3, 8, 7, 6|];